letting n =  10
letting blocks =  [[1, 6], [1, 9], [2, 9], [2, 10], [4, 2], [5, 1], [5, 5], [5, 6], [6, 2], [6, 3], [6, 4], [6, 8], [6, 9], [7, 6], [7, 9], [8, 4], [8, 8], [8, 10], [9, 4], [9, 8], [10, 4], [10, 9]]
